c CNF file corresponding to a (partial) station packing problem.
p cnf 1189 229
1 2 3 4 5 6 7 8 9 10 11 12 13 14 0
-1 -2 0
-1 -3 0
-1 -4 0
-1 -5 0
-1 -6 0
-1 -7 0
-1 -8 0
-1 -9 0
-1 -10 0
-1 -11 0
-1 -12 0
-1 -13 0
-1 -14 0
-2 -3 0
-2 -4 0
-2 -5 0
-2 -6 0
-2 -7 0
-2 -8 0
-2 -9 0
-2 -10 0
-2 -11 0
-2 -12 0
-2 -13 0
-2 -14 0
-3 -4 0
-3 -5 0
-3 -6 0
-3 -7 0
-3 -8 0
-3 -9 0
-3 -10 0
-3 -11 0
-3 -12 0
-3 -13 0
-3 -14 0
-4 -5 0
-4 -6 0
-4 -7 0
-4 -8 0
-4 -9 0
-4 -10 0
-4 -11 0
-4 -12 0
-4 -13 0
-4 -14 0
-5 -6 0
-5 -7 0
-5 -8 0
-5 -9 0
-5 -10 0
-5 -11 0
-5 -12 0
-5 -13 0
-5 -14 0
-6 -7 0
-6 -8 0
-6 -9 0
-6 -10 0
-6 -11 0
-6 -12 0
-6 -13 0
-6 -14 0
-7 -8 0
-7 -9 0
-7 -10 0
-7 -11 0
-7 -12 0
-7 -13 0
-7 -14 0
-8 -9 0
-8 -10 0
-8 -11 0
-8 -12 0
-8 -13 0
-8 -14 0
-9 -10 0
-9 -11 0
-9 -12 0
-9 -13 0
-9 -14 0
-10 -11 0
-10 -12 0
-10 -13 0
-10 -14 0
-11 -12 0
-11 -13 0
-11 -14 0
-12 -13 0
-12 -14 0
-13 -14 0
1173 1174 1175 1176 1177 1178 1179 1180 1181 1182 1183 1184 1185 1186 1187 1188 1189 0
-1173 -1174 0
-1173 -1175 0
-1173 -1176 0
-1173 -1177 0
-1173 -1178 0
-1173 -1179 0
-1173 -1180 0
-1173 -1181 0
-1173 -1182 0
-1173 -1183 0
-1173 -1184 0
-1173 -1185 0
-1173 -1186 0
-1173 -1187 0
-1173 -1188 0
-1173 -1189 0
-1174 -1175 0
-1174 -1176 0
-1174 -1177 0
-1174 -1178 0
-1174 -1179 0
-1174 -1180 0
-1174 -1181 0
-1174 -1182 0
-1174 -1183 0
-1174 -1184 0
-1174 -1185 0
-1174 -1186 0
-1174 -1187 0
-1174 -1188 0
-1174 -1189 0
-1175 -1176 0
-1175 -1177 0
-1175 -1178 0
-1175 -1179 0
-1175 -1180 0
-1175 -1181 0
-1175 -1182 0
-1175 -1183 0
-1175 -1184 0
-1175 -1185 0
-1175 -1186 0
-1175 -1187 0
-1175 -1188 0
-1175 -1189 0
-1176 -1177 0
-1176 -1178 0
-1176 -1179 0
-1176 -1180 0
-1176 -1181 0
-1176 -1182 0
-1176 -1183 0
-1176 -1184 0
-1176 -1185 0
-1176 -1186 0
-1176 -1187 0
-1176 -1188 0
-1176 -1189 0
-1177 -1178 0
-1177 -1179 0
-1177 -1180 0
-1177 -1181 0
-1177 -1182 0
-1177 -1183 0
-1177 -1184 0
-1177 -1185 0
-1177 -1186 0
-1177 -1187 0
-1177 -1188 0
-1177 -1189 0
-1178 -1179 0
-1178 -1180 0
-1178 -1181 0
-1178 -1182 0
-1178 -1183 0
-1178 -1184 0
-1178 -1185 0
-1178 -1186 0
-1178 -1187 0
-1178 -1188 0
-1178 -1189 0
-1179 -1180 0
-1179 -1181 0
-1179 -1182 0
-1179 -1183 0
-1179 -1184 0
-1179 -1185 0
-1179 -1186 0
-1179 -1187 0
-1179 -1188 0
-1179 -1189 0
-1180 -1181 0
-1180 -1182 0
-1180 -1183 0
-1180 -1184 0
-1180 -1185 0
-1180 -1186 0
-1180 -1187 0
-1180 -1188 0
-1180 -1189 0
-1181 -1182 0
-1181 -1183 0
-1181 -1184 0
-1181 -1185 0
-1181 -1186 0
-1181 -1187 0
-1181 -1188 0
-1181 -1189 0
-1182 -1183 0
-1182 -1184 0
-1182 -1185 0
-1182 -1186 0
-1182 -1187 0
-1182 -1188 0
-1182 -1189 0
-1183 -1184 0
-1183 -1185 0
-1183 -1186 0
-1183 -1187 0
-1183 -1188 0
-1183 -1189 0
-1184 -1185 0
-1184 -1186 0
-1184 -1187 0
-1184 -1188 0
-1184 -1189 0
-1185 -1186 0
-1185 -1187 0
-1185 -1188 0
-1185 -1189 0
-1186 -1187 0
-1186 -1188 0
-1186 -1189 0
-1187 -1188 0
-1187 -1189 0
-1188 -1189 0
